c instancia_18  vars=15  clausulas=25  k=2
p cnf 15 25
-14 2 0
-13 -9 0
5 3 0
13 10 0
7 -2 0
-12 -3 0
-6 8 0
-7 -12 0
8 -3 0
-5 -11 0
-11 -10 0
-11 15 0
11 8 0
7 -13 0
15 12 0
7 -14 0
7 -10 0
4 5 0
4 2 0
10 -1 0
9 15 0
-6 -12 0
-10 8 0
-13 15 0
-9 -1 0
